35
2 1 9
3 0 9
3 2 5
4 0 6
4 1 2
4 2 10
5 0 4
5 1 3
5 4 2
6 2 10
6 3 1
7 2 2
7 3 2
7 4 4
7 6 8
8 0 5
8 2 5
8 5 1
8 6 5
8 7 9
9 0 4
9 3 10
9 6 4
10 3 7
10 4 3
10 5 2
10 6 7
10 7 3
10 8 8
11 0 2
11 1 10
11 3 4
11 5 4
11 6 7
11 7 6
11 8 4
12 0 6
12 3 1
12 6 2
12 7 7
12 8 4
12 9 10
12 10 6
12 11 3
13 0 2
13 1 10
13 2 1
13 3 4
13 4 9
13 6 7
13 7 4
13 10 8
13 11 6
14 3 5
14 8 6
14 9 10
14 10 1
14 11 3
14 13 4
15 0 9
15 2 8
15 3 5
15 4 6
15 5 2
15 6 9
15 11 6
15 12 8
16 0 8
16 1 8
16 4 8
16 11 9
17 1 4
17 3 6
17 5 1
17 6 8
17 7 1
17 9 9
17 12 4
17 13 8
17 15 9
18 2 10
18 6 5
18 7 9
18 10 10
18 11 6
18 14 2
18 16 7
19 0 7
19 1 4
19 2 6
19 3 10
19 4 1
19 9 8
19 11 1
19 14 5
19 15 10
19 16 5
19 17 3
19 18 6
20 0 7
20 4 9
20 8 7
20 11 6
20 14 5
20 16 2
21 0 10
21 1 9
21 2 1
21 3 7
21 5 8
21 6 3
21 7 7
21 14 10
21 16 7
21 17 2
21 19 8
22 0 8
22 1 8
22 2 1
22 4 4
22 6 1
22 8 6
22 11 5
22 13 2
22 14 7
22 15 7
22 17 1
22 21 1
23 0 10
23 2 3
23 3 9
23 6 8
23 9 2
23 10 2
23 11 2
23 13 1
23 16 2
23 19 9
24 0 2
24 1 8
24 2 9
24 4 10
24 5 7
24 6 6
24 8 4
24 9 4
24 10 4
24 12 7
24 16 3
24 17 4
24 18 4
24 19 1
24 21 9
24 22 3
25 0 4
25 3 6
25 6 4
25 8 1
25 10 8
25 12 8
25 13 4
25 15 10
25 17 3
25 19 5
25 20 9
25 22 5
26 0 1
26 2 3
26 3 3
26 6 2
26 7 8
26 15 3
26 17 7
26 18 2
26 19 7
26 21 4
26 22 5
26 23 3
26 25 2
27 0 9
27 3 2
27 7 6
27 9 2
27 10 8
27 12 7
27 14 9
27 15 7
27 22 8
27 23 2
27 24 9
27 25 6
28 1 7
28 2 7
28 3 5
28 5 5
28 7 6
28 10 7
28 11 5
28 14 2
28 15 6
28 17 3
28 19 3
28 21 10
28 22 7
28 23 8
29 1 7
29 4 9
29 6 5
29 12 2
29 15 2
29 17 9
29 18 9
29 19 3
29 21 10
29 23 2
29 24 8
29 25 1
29 26 10
29 27 6
29 28 2
30 0 10
30 3 8
30 4 1
30 6 9
30 7 4
30 8 4
30 12 3
30 13 9
30 16 9
30 18 3
30 21 5
30 22 1
30 23 2
31 0 6
31 3 4
31 5 9
31 9 4
31 10 10
31 12 1
31 15 3
31 16 4
31 18 5
31 19 1
31 20 5
31 21 5
31 25 6
31 26 9
31 28 10
31 29 7
31 30 8
32 0 7
32 1 5
32 2 2
32 3 4
32 4 10
32 5 10
32 11 6
32 13 6
32 14 5
32 17 9
32 25 9
32 26 5
32 28 4
33 1 7
33 4 2
33 5 1
33 6 5
33 9 3
33 10 9
33 16 6
33 23 5
33 28 4
33 30 5
34 1 5
34 6 5
34 8 10
34 9 6
34 10 3
34 11 10
34 13 2
34 15 3
34 20 5
34 22 6
34 23 3
34 24 3
34 25 7
34 26 9
34 28 9
34 29 10
34 31 8
